(set-logic QF_S)
(declare-fun var0 () String)
(assert (str.in.re var0 (re.++ (re.* (re.union (re.+ (re.* (re.+ (re.+ (re.+ (re.union (re.union (re.* (re.+ (re.+ (str.to.re "000")))) (re.* (re.* (re.+ (str.to.re "11"))))) (re.union (re.union (re.* (re.* (str.to.re "2"))) (re.* (re.union (str.to.re "333") (str.to.re "444")))) (re.union (re.union (re.union (str.to.re "555") (str.to.re "6")) (re.union (str.to.re "777") (str.to.re "88"))) (re.union (re.union (str.to.re "9") (str.to.re "aaa")) (re.union (str.to.re "bbb") (str.to.re "ccc"))))))))))) (re.+ (re.* (re.union (re.union (re.union (re.union (re.+ (re.union (re.+ (re.union (str.to.re "d") (str.to.re "e"))) (re.+ (re.* (str.to.re "f"))))) (re.+ (re.+ (re.* (re.* (str.to.re "ggg")))))) (re.union (re.+ (re.union (re.union (re.* (str.to.re "h")) (re.* (str.to.re "iii"))) (re.union (re.* (str.to.re "jjj")) (re.* (str.to.re "kk"))))) (re.+ (re.+ (re.+ (re.* (str.to.re "ll"))))))) (re.union (re.union (re.+ (re.union (re.* (re.* (str.to.re "mm"))) (re.* (re.* (str.to.re "n"))))) (re.+ (re.union (re.* (re.* (str.to.re "o"))) (re.* (re.* (str.to.re "pp")))))) (re.union (re.+ (re.* (re.+ (re.* (str.to.re "qq"))))) (re.+ (re.+ (re.* (re.+ (str.to.re "rrr")))))))) (re.union (re.+ (re.* (re.+ (re.* (re.* (re.union (str.to.re "sss") (str.to.re "ttt"))))))) (re.+ (re.* (re.+ (re.* (re.union (re.+ (str.to.re "uu")) (re.+ (str.to.re "vvv"))))))))))))) (re.+ (re.+ (re.* (re.+ (re.union (re.union (re.union (re.* (re.+ (re.+ (re.* (re.+ (str.to.re "ww")))))) (re.* (re.union (re.+ (re.union (re.union (str.to.re "xx") (str.to.re "yyy")) (re.union (str.to.re "zzz") (str.to.re "A")))) (re.+ (re.+ (re.* (str.to.re "BBB"))))))) (re.union (re.* (re.+ (re.+ (re.+ (re.* (str.to.re "CCC")))))) (re.* (re.* (re.+ (re.* (re.* (str.to.re "DD")))))))) (re.union (re.union (re.+ (re.* (re.* (re.* (re.* (str.to.re "EE")))))) (re.+ (re.* (re.union (re.* (re.+ (str.to.re "F"))) (re.* (re.union (str.to.re "GGG") (str.to.re "H"))))))) (re.union (re.* (re.+ (re.union (re.union (re.* (str.to.re "III")) (re.* (str.to.re "JJ"))) (re.union (re.union (str.to.re "KK") (str.to.re "LLL")) (re.union (str.to.re "M") (str.to.re "NNN")))))) (re.* (re.+ (re.union (re.+ (re.+ (str.to.re "O"))) (re.+ (re.+ (str.to.re "PPP"))))))))))))))))
(assert (<= 15 (str.len var0)))
(check-sat)